p cnf 494
-13 -134
-14 -137
-15 -140
-16 -143
-17 -146
-18 -149
-19 -152
-20 -155
-21 -158
-22 -161
-23 -164
-24 -167
-25 -169
-26 -171
-27 -173
-28 -175
-29 -177
-30 -179
-31 -181
-32 -183
-33 -185
-34 -187
-35 -189
-36 -191
-37 192
-38 -16
-38 24
16 -24 38
-39 16
-39 -24
-16 24 39
-40 -38
-40 -39
38 39 40
-41 -22
-41 -40
22 40 41
-42 22
-42 40
-22 -40 42
-43 -41
-43 -42
41 42 43
-44 -23
-44 -43
23 43 44
-45 23
-45 43
-23 -43 45
-46 -44
-46 -45
44 45 46
-47 -1
-47 -2
1 2 47
-48 -3
-48 -4
3 4 48
-49 -5
-49 -6
5 6 49
-50 -7
-50 -8
7 8 50
-51 -9
-51 -10
9 10 51
-52 -11
-52 -12
11 12 52
-53 47
-53 48
-47 -48 53
-54 49
-54 50
-49 -50 54
-55 51
-55 52
-51 -52 55
-56 53
-56 54
-53 -54 56
-57 55
-57 56
-55 -56 57
-58 -25
-58 -26
25 26 58
-59 -27
-59 -28
27 28 59
-60 -29
-60 -30
29 30 60
-61 -31
-61 -32
31 32 61
-62 -33
-62 -34
33 34 62
-63 -35
-63 -36
35 36 63
-64 58
-64 59
-58 -59 64
-65 60
-65 61
-60 -61 65
-66 62
-66 63
-62 -63 66
-67 64
-67 65
-64 -65 67
-68 66
-68 67
-66 -67 68
-69 25
-69 -46
-25 46 69
-70 -25
-70 46
25 -46 70
-71 -69
-71 -70
69 70 71
-72 13
-72 26
-13 -26 72
-73 -13
-73 -26
13 26 73
-74 -72
-74 -73
72 73 74
-75 14
-75 27
-14 -27 75
-76 -14
-76 -27
14 27 76
-77 -75
-77 -76
75 76 77
-78 15
-78 28
-15 -28 78
-79 -15
-79 -28
15 28 79
-80 -78
-80 -79
78 79 80
-81 16
-81 29
-16 -29 81
-82 -16
-82 -29
16 29 82
-83 -81
-83 -82
81 82 83
-84 17
-84 30
-17 -30 84
-85 -17
-85 -30
17 30 85
-86 -84
-86 -85
84 85 86
-87 18
-87 31
-18 -31 87
-88 -18
-88 -31
18 31 88
-89 -87
-89 -88
87 88 89
-90 19
-90 32
-19 -32 90
-91 -19
-91 -32
19 32 91
-92 -90
-92 -91
90 91 92
-93 20
-93 33
-20 -33 93
-94 -20
-94 -33
20 33 94
-95 -93
-95 -94
93 94 95
-96 21
-96 34
-21 -34 96
-97 -21
-97 -34
21 34 97
-98 -96
-98 -97
96 97 98
-99 22
-99 35
-22 -35 99
-100 -22
-100 -35
22 35 100
-101 -99
-101 -100
99 100 101
-102 23
-102 36
-23 -36 102
-103 -23
-103 -36
23 36 103
-104 -102
-104 -103
102 103 104
-105 -71
-105 -74
71 74 105
-106 -77
-106 -80
77 80 106
-107 -83
-107 -86
83 86 107
-108 -89
-108 -92
89 92 108
-109 -95
-109 -98
95 98 109
-110 -101
-110 -104
101 104 110
-111 105
-111 106
-105 -106 111
-112 107
-112 108
-107 -108 112
-113 109
-113 110
-109 -110 113
-114 111
-114 112
-111 -112 114
-115 113
-115 114
-113 -114 115
-116 -68
-116 115
68 -115 116
-117 37
-117 116
-37 -116 117
-118 57
-118 117
-57 -117 118
-119 -13
-119 46
13 -46 119
-120 -14
-120 -15
14 15 120
-121 -16
-121 -17
16 17 121
-122 -18
-122 -19
18 19 122
-123 -20
-123 -21
20 21 123
-124 -22
-124 -23
22 23 124
-125 119
-125 120
-119 -120 125
-126 121
-126 122
-121 -122 126
-127 123
-127 124
-123 -124 127
-128 125
-128 126
-125 -126 128
-129 127
-129 128
-127 -128 129
-130 -68
-130 129
68 -129 130
-131 57
-131 -116
-57 116 131
-132 1
-132 -57
-1 57 132
-133 -46
-133 57
46 -57 133
-134 -132
-134 -133
132 133 134
-135 2
-135 -57
-2 57 135
-136 13
-136 57
-13 -57 136
-137 -135
-137 -136
135 136 137
-138 3
-138 -57
-3 57 138
-139 14
-139 57
-14 -57 139
-140 -138
-140 -139
138 139 140
-141 4
-141 -57
-4 57 141
-142 15
-142 57
-15 -57 142
-143 -141
-143 -142
141 142 143
-144 5
-144 -57
-5 57 144
-145 16
-145 57
-16 -57 145
-146 -144
-146 -145
144 145 146
-147 6
-147 -57
-6 57 147
-148 17
-148 57
-17 -57 148
-149 -147
-149 -148
147 148 149
-150 7
-150 -57
-7 57 150
-151 18
-151 57
-18 -57 151
-152 -150
-152 -151
150 151 152
-153 8
-153 -57
-8 57 153
-154 19
-154 57
-19 -57 154
-155 -153
-155 -154
153 154 155
-156 9
-156 -57
-9 57 156
-157 20
-157 57
-20 -57 157
-158 -156
-158 -157
156 157 158
-159 10
-159 -57
-10 57 159
-160 21
-160 57
-21 -57 160
-161 -159
-161 -160
159 160 161
-162 11
-162 -57
-11 57 162
-163 22
-163 57
-22 -57 163
-164 -162
-164 -163
162 163 164
-165 12
-165 -57
-12 57 165
-166 23
-166 57
-23 -57 166
-167 -165
-167 -166
165 166 167
-168 25
-168 57
-25 -57 168
-169 -132
-169 -168
132 168 169
-170 26
-170 57
-26 -57 170
-171 -135
-171 -170
135 170 171
-172 27
-172 57
-27 -57 172
-173 -138
-173 -172
138 172 173
-174 28
-174 57
-28 -57 174
-175 -141
-175 -174
141 174 175
-176 29
-176 57
-29 -57 176
-177 -144
-177 -176
144 176 177
-178 30
-178 57
-30 -57 178
-179 -147
-179 -178
147 178 179
-180 31
-180 57
-31 -57 180
-181 -150
-181 -180
150 180 181
-182 32
-182 57
-32 -57 182
-183 -153
-183 -182
153 182 183
-184 33
-184 57
-33 -57 184
-185 -156
-185 -184
156 184 185
-186 34
-186 57
-34 -57 186
-187 -159
-187 -186
159 186 187
-188 35
-188 57
-35 -57 188
-189 -162
-189 -188
162 188 189
-190 36
-190 57
-36 -57 190
-191 -165
-191 -190
165 190 191
-192 -37
-192 131
37 -131 192
-193 -118
-193 -130
118 130 193
-193
